; benchmark generated from python API
(set-info :status unknown)
(declare-datatypes ((RealState 0)) (((RMk1 (rval1 Real)) (RMk2 (rval2 Real)))))
 (assert
 (exists ((|v11:0_st| RealState) (val!4812 Real) )(exists ((|v10:1_st| RealState) (val!4813 Real) )(exists ((|v9:2_st| RealState) (val!4814 Real) )(exists ((|v8:3_st| RealState) (val!4815 Real) )(forall ((|v7:4| Real) )(forall ((|v6:5| Real) )(forall ((|v5:6| Real) )(forall ((|v4:7| Real) )(exists ((|v3:8_st| RealState) (val!4816 Real) )(exists ((|v2:9_st| RealState) (val!4817 Real) )(exists ((|v1:10_st| RealState) (val!4818 Real) )(exists ((|v0:11_st| RealState) (val!4819 Real) )(let ((?x3256 (* 19.0 |v6:5|)))
 (let ((?x3029 (+ (+ (+ (* 7.0 (rval2 |v0:11_st|)) (* 7.0 (rval2 |v11:0_st|))) ?x3256) (* (- 19.0) (rval2 |v3:8_st|)))))
 (let ((?x3138 (rval2 |v1:10_st|)))
 (let ((?x1642 (- 18.0)))
 (let ((?x1457 (* ?x1642 ?x3138)))
 (let ((?x2752 (+ (+ (+ (* 18.0 (rval2 |v2:9_st|)) (* 7.0 |v4:7|)) ?x1457) (* (- 17.0) (rval2 |v10:1_st|)))))
 (let ((?x1709 (- 16.0)))
 (let ((?x3147 (rval2 |v9:2_st|)))
 (let ((?x3044 (- 20.0)))
 (let ((?x676 (* ?x3044 ?x3147)))
 (let ((?x1666 (+ (+ (+ (* (- 12.0) (rval2 |v11:0_st|)) (* 3.0 |v5:6|)) ?x676) (* 15.0 (rval2 |v8:3_st|)))))
 (let ((?x1858 (+ (+ (* 19.0 (rval2 |v10:1_st|)) (* 17.0 (rval2 |v0:11_st|))) (* (- 1.0) ?x3147))))
 (let (($x2773 (and (<= (+ ?x1858 (* (- 5.0) (rval2 |v10:1_st|))) 0.0) (<= ?x1666 ?x1709))))
 (let ((?x1477 (- 5.0)))
 (let ((?x561 (+ (+ (+ (* 18.0 |v4:7|) ?x676) (* 3.0 |v7:4|)) (* (- 6.0) (rval2 |v0:11_st|)))))
 (let ((?x2597 (* 11.0 ?x3138)))
 (let ((?x903 (+ (+ (+ (* (- 13.0) ?x3147) (* (- 12.0) |v7:4|)) (* 5.0 |v4:7|)) ?x2597)))
 (let ((?x1633 (- 7.0)))
 (let ((?x2735 (* ?x1633 |v4:7|)))
 (let ((?x2841 (+ (+ (+ (* (- 12.0) |v4:7|) (* 12.0 (rval2 |v3:8_st|))) ?x2735) (* ?x1633 (rval2 |v8:3_st|)))))
 (let ((?x2749 (- 17.0)))
 (let ((?x939 (* ?x2749 |v7:4|)))
 (let ((?x728 (* 9.0 ?x3138)))
 (let ((?x3068 (+ (+ (+ (* 2.0 (rval2 |v3:8_st|)) (* 10.0 (rval2 |v0:11_st|))) ?x728) ?x939)))
 (let (($x2548 (and (and (<= ?x3068 2.0) (<= ?x2841 0.0)) (and (<= ?x903 16.0) (<= ?x561 ?x1477)))))
 (let ((?x2572 (- 4.0)))
 (let ((?x2946 (- 12.0)))
 (let ((?x2800 (* ?x2946 |v4:7|)))
 (let ((?x1101 (+ (+ (* (- 6.0) |v5:6|) (* 14.0 (rval2 |v8:3_st|))) (* (- 2.0) (rval2 |v10:1_st|)))))
 (let ((?x2096 (- 10.0)))
 (let ((?x220 (rval2 |v11:0_st|)))
 (let ((?x68 (* 6.0 ?x220)))
 (let ((?x809 (+ (+ (+ (* 13.0 (rval2 |v0:11_st|)) (* ?x3044 |v7:4|)) ?x68) (* ?x1477 (rval2 |v3:8_st|)))))
 (let ((?x2397 (rval2 |v3:8_st|)))
 (let ((?x556 (* 14.0 ?x2397)))
 (let (($x1747 (<= (+ (+ (+ ?x3147 (* 20.0 (rval2 |v2:9_st|))) (* (- 11.0) |v7:4|)) ?x556) 10.0)))
 (let ((?x652 (+ (+ (+ (* 14.0 ?x3138) (* (- 6.0) ?x220)) (* 3.0 ?x2397)) (* ?x2096 ?x3138))))
 (let (($x2334 (and (and (<= ?x652 17.0) $x1747) (and (<= ?x809 ?x2096) (<= (+ ?x1101 ?x2800) ?x2572)))))
 (let ((?x172 (* ?x1477 |v7:4|)))
 (let ((?x2375 (+ (+ (+ (* 3.0 |v5:6|) (* 7.0 (rval2 |v10:1_st|))) (* 16.0 ?x2397)) ?x172)))
 (let ((?x1992 (* 14.0 |v7:4|)))
 (let ((?x345 (+ (+ (+ (* ?x2096 |v7:4|) (* ?x2749 (rval2 |v8:3_st|))) (* ?x2749 (rval2 |v0:11_st|))) ?x1992)))
 (let ((?x961 (- 2.0)))
 (let ((?x1919 (* ?x961 |v6:5|)))
 (let ((?x9 (+ (+ (* 16.0 (rval2 |v8:3_st|)) (* 2.0 (rval2 |v8:3_st|))) (* (- 14.0) (rval2 |v8:3_st|)))))
 (let ((?x1720 (* 12.0 ?x2397)))
 (let ((?x273 (rval2 |v2:9_st|)))
 (let ((?x496 (- 19.0)))
 (let ((?x334 (* ?x496 ?x273)))
 (let (($x1486 (<= (+ (+ (+ (* 3.0 |v4:7|) (* ?x961 (rval2 |v8:3_st|))) ?x334) ?x1720) 16.0)))
 (let (($x3415 (and (and $x1486 (<= (+ ?x9 ?x1919) 14.0)) (and (<= ?x345 15.0) (<= ?x2375 ?x2749)))))
 (let (($x489 (and (and $x3415 $x2334) (and $x2548 (and $x2773 (and (<= ?x2752 18.0) (<= ?x3029 14.0)))))))
 (let ((?x1672 (+ (+ (+ (* ?x2096 |v7:4|) ?x1992) (* 2.0 (rval2 |v0:11_st|))) (* (- 15.0) (rval2 |v10:1_st|)))))
 (let ((?x1373 (+ (+ (+ |v7:4| (* (- 14.0) |v6:5|)) (* 11.0 |v7:4|)) (* (- 1.0) |v4:7|))))
 (let ((?x1690 (* 18.0 ?x3138)))
 (let ((?x1530 (+ (+ (+ (* 18.0 (rval2 |v0:11_st|)) (* 9.0 (rval2 |v8:3_st|))) ?x1690) (* (- 9.0) |v4:7|))))
 (let (($x2006 (<= (+ (+ (+ ?x2397 (* 19.0 ?x220)) (* 11.0 ?x220)) (* ?x2572 ?x2397)) ?x1642)))
 (let (($x3407 (and (and $x2006 (<= ?x1530 13.0)) (and (<= ?x1373 ?x1633) (<= ?x1672 5.0)))))
 (let ((?x2250 (rval2 |v10:1_st|)))
 (let ((?x2769 (* 15.0 ?x2250)))
 (let (($x1336 (<= (+ (+ (+ (* 5.0 ?x2397) (* 3.0 |v6:5|)) (* 18.0 |v5:6|)) ?x2769) ?x961)))
 (let ((?x2664 (+ (+ (+ (* ?x2572 |v4:7|) (* 12.0 |v7:4|)) (* 8.0 |v5:6|)) (* ?x496 ?x3147))))
 (let ((?x776 (* 5.0 ?x273)))
 (let ((?x2377 (+ (+ (+ (* 10.0 |v6:5|) (* (- 1.0) ?x273)) (* (- 13.0) ?x2250)) ?x776)))
 (let ((?x2937 (+ (+ (+ (* 4.0 ?x3138) (* 9.0 ?x2250)) (* (- 11.0) |v4:7|)) (* 13.0 |v6:5|))))
 (let (($x3062 (and (and (<= ?x2937 13.0) (<= ?x2377 16.0)) (and (<= ?x2664 ?x2946) $x1336))))
 (let ((?x721 (rval2 |v0:11_st|)))
 (let ((?x1050 (* 8.0 ?x721)))
 (let (($x929 (<= (+ (+ (+ (* 18.0 ?x3147) (* 15.0 ?x2397)) (* ?x496 |v5:6|)) ?x1050) 13.0)))
 (let ((?x3437 (+ (+ (+ (* (- 14.0) ?x3138) (* ?x2096 ?x721)) (* 5.0 |v6:5|)) (* (- 8.0) |v7:4|))))
 (let ((?x981 (+ (+ (+ (* (- 9.0) ?x721) (* 18.0 |v5:6|)) (* ?x1633 |v6:5|)) (* 0.0 ?x3147))))
 (let ((?x1984 (* ?x2946 |v7:4|)))
 (let (($x3026 (<= (+ (+ (+ ?x334 (* (- 8.0) ?x721)) (* (- 3.0) ?x220)) ?x1984) 20.0)))
 (let ((?x719 (* 8.0 ?x3138)))
 (let (($x843 (<= (+ (+ (+ (* ?x2572 |v4:7|) (* (- 1.0) |v5:6|)) (* 18.0 ?x220)) ?x719) 15.0)))
 (let ((?x3071 (rval2 |v8:3_st|)))
 (let ((?x1327 (* 5.0 ?x3071)))
 (let ((?x1209 (+ (+ (+ (* 19.0 ?x3071) (* (- 14.0) ?x273)) (* 0.0 ?x721)) ?x1327)))
 (let ((?x1774 (- 11.0)))
 (let ((?x2988 (+ (+ (+ (* 17.0 |v5:6|) (* 9.0 |v5:6|)) (* (- 3.0) ?x273)) (* 6.0 ?x721))))
 (let (($x3433 (<= (+ (+ (+ (* 15.0 |v7:4|) (* 4.0 ?x3147)) (* 19.0 ?x721)) ?x334) 19.0)))
 (let (($x1224 (and (and (and $x3433 (<= ?x2988 ?x1774)) (or (<= ?x1209 ?x2946) $x843)) (and (and $x3026 (<= ?x981 ?x2572)) (and (<= ?x3437 13.0) $x929)))))
 (let (($x2829 (<= (+ (+ (+ (* (- 15.0) ?x273) (* 12.0 ?x721)) (* ?x1477 ?x3071)) |v4:7|) 14.0)))
 (let (($x545 (and $x2829 (<= (+ (+ (+ (* ?x1709 ?x273) ?x68) |v5:6|) (* ?x1709 ?x721)) 14.0))))
 (let (($x2125 (<= (+ (+ (+ (* (- 6.0) |v4:7|) (* ?x2946 ?x2397)) (* 4.0 ?x220)) ?x1690) 17.0)))
 (let ((?x2648 (- 8.0)))
 (let ((?x1071 (* 5.0 ?x220)))
 (let (($x2253 (<= (+ (+ (+ (* 6.0 ?x273) (* 20.0 ?x3138)) (* ?x1633 ?x2250)) ?x1071) ?x2648)))
 (let ((?x1542 (+ (+ (+ (* 20.0 |v6:5|) (* 13.0 ?x3071)) (* ?x2946 ?x273)) (* ?x1774 |v5:6|))))
 (let ((?x1202 (+ (+ (+ (* ?x961 ?x3138) (* 9.0 |v6:5|)) (* 4.0 |v6:5|)) (* ?x496 |v7:4|))))
 (let ((?x2072 (- 14.0)))
 (let (($x3225 (<= (+ (+ (+ (* ?x1642 ?x2397) (* ?x2572 ?x721)) ?x3147) (* (- 3.0) ?x3147)) ?x2072)))
 (let (($x2286 (or (<= (+ (+ (+ (* ?x2648 ?x2397) (* 12.0 ?x721)) ?x1457) ?x273) 3.0) $x3225)))
 (let (($x1934 (and (and $x2286 (and (<= ?x1202 ?x961) (<= ?x1542 12.0))) (and (and $x2253 $x2125) $x545))))
 (let ((?x218 (+ (+ (+ (* 6.0 ?x2397) (* 3.0 |v5:6|)) (* ?x3044 ?x220)) (* 15.0 |v5:6|))))
 (let (($x488 (<= (+ (+ (+ ?x728 (* 7.0 ?x2250)) (* ?x961 |v5:6|)) (* ?x2946 ?x721)) 16.0)))
 (let (($x2899 (<= (+ (+ (+ (* (- 9.0) |v5:6|) (* ?x2096 ?x3147)) (* ?x1774 |v7:4|)) ?x3256) ?x2572)))
 (let ((?x3364 (+ (+ (+ (* 13.0 |v4:7|) (* ?x2946 ?x273)) (* ?x2096 ?x2250)) (* (- 3.0) ?x2250))))
 (let ((?x2741 (* ?x2572 ?x721)))
 (let (($x863 (<= (+ (+ (+ (* 3.0 |v7:4|) (* ?x3044 |v6:5|)) (* 20.0 ?x273)) ?x2741) 5.0)))
 (let (($x309 (<= (+ (+ (+ (* ?x2096 ?x273) (* (- 9.0) |v6:5|)) |v6:5|) ?x172) 18.0)))
 (let ((?x27 (+ (+ (+ (* ?x3044 ?x2397) (* ?x1709 ?x220)) (* 12.0 ?x3138)) (* 15.0 ?x3138))))
 (let ((?x601 (+ (+ (+ (* (- 15.0) ?x3138) (* 0.0 ?x3138)) (* 13.0 ?x3071)) ?x1992)))
 (let (($x2576 (and (and (or (<= ?x601 8.0) (<= ?x27 ?x2648)) (and $x309 $x863)) (and (and (<= ?x3364 ?x496) $x2899) (and $x488 (<= ?x218 17.0))))))
 (let (($x356 (<= (+ (+ (+ (* 10.0 ?x220) (* ?x2572 ?x220)) ?x1720) (* ?x1633 ?x2250)) ?x2946)))
 (let ((?x1584 (* 7.0 |v6:5|)))
 (let (($x2496 (<= (+ (+ (+ (* ?x2749 ?x220) (* 3.0 |v5:6|)) (* 20.0 ?x3138)) ?x1584) 15.0)))
 (let (($x1731 (<= (+ (+ (+ (* ?x3044 |v6:5|) (* 17.0 ?x3071)) ?x939) (* 17.0 |v5:6|)) 4.0)))
 (let (($x2591 (<= (+ (+ (+ (* 13.0 ?x220) (* ?x961 ?x2397)) ?x939) (* 14.0 ?x2250)) 0.0)))
 (let ((?x1930 (* 18.0 |v7:4|)))
 (let (($x1864 (<= (+ (+ (+ (* ?x1709 ?x3147) (* 14.0 |v5:6|)) (* 3.0 |v4:7|)) ?x1930) ?x2572)))
 (let ((?x2503 (- 3.0)))
 (let ((?x2898 (* ?x2503 ?x220)))
 (let (($x2674 (<= (+ (+ (+ (* ?x1774 ?x3138) (* ?x2946 ?x2397)) (* ?x3044 |v7:4|)) ?x2898) 11.0)))
 (let ((?x1187 (+ (+ (+ (* ?x2946 ?x3138) (* ?x2572 ?x2250)) (* ?x2648 ?x721)) (* ?x2503 ?x721))))
 (let (($x2833 (<= (+ (+ (+ (* 18.0 ?x3147) ?x719) (* 8.0 |v6:5|)) (* ?x961 ?x273)) 19.0)))
 (let (($x3176 (and (and (and $x2833 (<= ?x1187 ?x1642)) (or $x2674 $x1864)) (and (and $x2591 $x1731) (and $x2496 $x356)))))
 (let ((?x254 (* ?x2096 ?x721)))
 (let (($x2024 (<= (+ (+ (+ (* 10.0 ?x2397) (* ?x1774 |v7:4|)) (* ?x2072 |v4:7|)) ?x254) ?x961)))
 (let (($x1396 (and $x2024 (<= (+ (+ (+ ?x728 (* 16.0 ?x3138)) (* 9.0 |v6:5|)) ?x776) 7.0))))
 (let ((?x2665 (* 10.0 ?x2397)))
 (let (($x564 (<= (+ (+ (+ (* 17.0 ?x3147) (* (- 6.0) ?x273)) ?x2735) ?x2665) ?x2648)))
 (let ((?x587 (+ (+ (+ (* 13.0 |v7:4|) (* 13.0 ?x3147)) (* (- 15.0) |v7:4|)) (* 18.0 ?x2250))))
 (let ((?x276 (+ (+ (+ (* 7.0 ?x2397) (* ?x1774 ?x3071)) (* 11.0 ?x220)) (* ?x3044 ?x3071))))
 (let (($x1776 (<= (+ (+ (+ (* ?x1709 |v4:7|) (* ?x961 |v5:6|)) ?x254) (* 17.0 |v7:4|)) 5.0)))
 (let ((?x2387 (- 1.0)))
 (let ((?x2034 (* 16.0 |v6:5|)))
 (let (($x420 (<= (+ (+ (+ (* ?x1477 |v5:6|) (* 10.0 ?x3071)) (* 19.0 ?x3147)) ?x2034) ?x2387)))
 (let ((?x539 (* 11.0 |v6:5|)))
 (let (($x1199 (<= (+ (+ (+ (* 14.0 ?x721) (* ?x2946 ?x721)) (* ?x2648 ?x2250)) ?x539) 18.0)))
 (let (($x30 (and (and (and $x1199 $x420) (or $x1776 (<= ?x276 ?x2503))) (and (and (<= ?x587 20.0) $x564) $x1396))))
 (let (($x2854 (and (or (and $x30 $x3176) (and $x2576 $x1934)) (and (and $x1224 (and $x3062 $x3407)) $x489))))
 (let (($x1161 (not (= |v0:11_st| (RMk1 val!4819)))))
 (let (($x1272 (not (= |v1:10_st| (RMk1 val!4818)))))
 (let (($x1346 (not (= |v2:9_st| (RMk1 val!4817)))))
 (let (($x2005 (not (= |v3:8_st| (RMk1 val!4816)))))
 (let (($x1367 (not (= |v8:3_st| (RMk1 val!4815)))))
 (let (($x3058 (not (= |v9:2_st| (RMk1 val!4814)))))
 (let (($x1294 (not (= |v10:1_st| (RMk1 val!4813)))))
 (let (($x2915 (not (= |v11:0_st| (RMk1 val!4812)))))
 (and $x2915 $x1294 $x3058 $x1367 $x2005 $x1346 $x1272 $x1161 $x2854))))))))))))))))))))))))))))))))))))))))))))))))))))))))))))))))))))))))))))))))))))))))))))))))))))))))))))))))))))))))))))))))))))))))))))))
 )
 )
 )
 )
 )
 )
 )
 )
 )
 )
 )
 )
(check-sat)
